Minimize
 obj: X_1
Subject To
 -X0 >= -1
 X0 >= 0
 17 X0 + X135 - X134 >= 1
 -17 X0 - X135 + X134 >= -16
 -X1 >= -1
 X1 >= 0
 17 X1 + X135 - X133 >= 1
 -17 X1 - X135 + X133 >= -16
 -X2 >= -1
 X2 >= 0
 17 X2 + X134 - X133 >= 1
 -17 X2 - X134 + X133 >= -16
 -X3 >= -1
 X3 >= 0
 17 X3 + X135 - X132 >= 1
 -17 X3 - X135 + X132 >= -16
 -X4 >= -1
 X4 >= 0
 17 X4 + X134 - X132 >= 1
 -17 X4 - X134 + X132 >= -16
 -X5 >= -1
 X5 >= 0
 17 X5 + X133 - X132 >= 1
 -17 X5 - X133 + X132 >= -16
 -X6 >= -1
 X6 >= 0
 17 X6 + X135 - X131 >= 1
 -17 X6 - X135 + X131 >= -16
 -X7 >= -1
 X7 >= 0
 17 X7 + X134 - X131 >= 1
 -17 X7 - X134 + X131 >= -16
 -X8 >= -1
 X8 >= 0
 17 X8 + X133 - X131 >= 1
 -17 X8 - X133 + X131 >= -16
 -X9 >= -1
 X9 >= 0
 17 X9 + X132 - X131 >= 1
 -17 X9 - X132 + X131 >= -16
 -X10 >= -1
 X10 >= 0
 17 X10 + X135 - X130 >= 1
 -17 X10 - X135 + X130 >= -16
 -X11 >= -1
 X11 >= 0
 17 X11 + X134 - X130 >= 1
 -17 X11 - X134 + X130 >= -16
 -X12 >= -1
 X12 >= 0
 17 X12 + X133 - X130 >= 1
 -17 X12 - X133 + X130 >= -16
 -X13 >= -1
 X13 >= 0
 17 X13 + X132 - X130 >= 1
 -17 X13 - X132 + X130 >= -16
 -X14 >= -1
 X14 >= 0
 17 X14 + X131 - X130 >= 1
 -17 X14 - X131 + X130 >= -16
 -X15 >= -1
 X15 >= 0
 17 X15 + X135 - X129 >= 1
 -17 X15 - X135 + X129 >= -16
 -X16 >= -1
 X16 >= 0
 17 X16 + X134 - X129 >= 1
 -17 X16 - X134 + X129 >= -16
 -X17 >= -1
 X17 >= 0
 17 X17 + X133 - X129 >= 1
 -17 X17 - X133 + X129 >= -16
 -X18 >= -1
 X18 >= 0
 17 X18 + X132 - X129 >= 1
 -17 X18 - X132 + X129 >= -16
 -X19 >= -1
 X19 >= 0
 17 X19 + X131 - X129 >= 1
 -17 X19 - X131 + X129 >= -16
 -X20 >= -1
 X20 >= 0
 17 X20 + X130 - X129 >= 1
 -17 X20 - X130 + X129 >= -16
 -X21 >= -1
 X21 >= 0
 17 X21 + X135 - X128 >= 1
 -17 X21 - X135 + X128 >= -16
 -X22 >= -1
 X22 >= 0
 17 X22 + X134 - X128 >= 1
 -17 X22 - X134 + X128 >= -16
 -X23 >= -1
 X23 >= 0
 17 X23 + X133 - X128 >= 1
 -17 X23 - X133 + X128 >= -16
 -X24 >= -1
 X24 >= 0
 17 X24 + X132 - X128 >= 1
 -17 X24 - X132 + X128 >= -16
 -X25 >= -1
 X25 >= 0
 17 X25 + X131 - X128 >= 1
 -17 X25 - X131 + X128 >= -16
 -X26 >= -1
 X26 >= 0
 17 X26 + X130 - X128 >= 1
 -17 X26 - X130 + X128 >= -16
 -X27 >= -1
 X27 >= 0
 17 X27 + X129 - X128 >= 1
 -17 X27 - X129 + X128 >= -16
 -X28 >= -1
 X28 >= 0
 17 X28 + X135 - X127 >= 1
 -17 X28 - X135 + X127 >= -16
 -X29 >= -1
 X29 >= 0
 17 X29 + X134 - X127 >= 1
 -17 X29 - X134 + X127 >= -16
 -X30 >= -1
 X30 >= 0
 17 X30 + X133 - X127 >= 1
 -17 X30 - X133 + X127 >= -16
 -X31 >= -1
 X31 >= 0
 17 X31 + X132 - X127 >= 1
 -17 X31 - X132 + X127 >= -16
 -X32 >= -1
 X32 >= 0
 17 X32 + X131 - X127 >= 1
 -17 X32 - X131 + X127 >= -16
 -X33 >= -1
 X33 >= 0
 17 X33 + X130 - X127 >= 1
 -17 X33 - X130 + X127 >= -16
 -X34 >= -1
 X34 >= 0
 17 X34 + X129 - X127 >= 1
 -17 X34 - X129 + X127 >= -16
 -X35 >= -1
 X35 >= 0
 17 X35 + X128 - X127 >= 1
 -17 X35 - X128 + X127 >= -16
 -X36 >= -1
 X36 >= 0
 17 X36 + X135 - X126 >= 1
 -17 X36 - X135 + X126 >= -16
 -X37 >= -1
 X37 >= 0
 17 X37 + X134 - X126 >= 1
 -17 X37 - X134 + X126 >= -16
 -X38 >= -1
 X38 >= 0
 17 X38 + X133 - X126 >= 1
 -17 X38 - X133 + X126 >= -16
 -X39 >= -1
 X39 >= 0
 17 X39 + X132 - X126 >= 1
 -17 X39 - X132 + X126 >= -16
 -X40 >= -1
 X40 >= 0
 17 X40 + X131 - X126 >= 1
 -17 X40 - X131 + X126 >= -16
 -X41 >= -1
 X41 >= 0
 17 X41 + X130 - X126 >= 1
 -17 X41 - X130 + X126 >= -16
 -X42 >= -1
 X42 >= 0
 17 X42 + X129 - X126 >= 1
 -17 X42 - X129 + X126 >= -16
 -X43 >= -1
 X43 >= 0
 17 X43 + X128 - X126 >= 1
 -17 X43 - X128 + X126 >= -16
 -X44 >= -1
 X44 >= 0
 17 X44 + X127 - X126 >= 1
 -17 X44 - X127 + X126 >= -16
 -X45 >= -1
 X45 >= 0
 17 X45 + X135 - X125 >= 1
 -17 X45 - X135 + X125 >= -16
 -X46 >= -1
 X46 >= 0
 17 X46 + X134 - X125 >= 1
 -17 X46 - X134 + X125 >= -16
 -X47 >= -1
 X47 >= 0
 17 X47 + X133 - X125 >= 1
 -17 X47 - X133 + X125 >= -16
 -X48 >= -1
 X48 >= 0
 17 X48 + X132 - X125 >= 1
 -17 X48 - X132 + X125 >= -16
 -X49 >= -1
 X49 >= 0
 17 X49 + X131 - X125 >= 1
 -17 X49 - X131 + X125 >= -16
 -X50 >= -1
 X50 >= 0
 17 X50 + X130 - X125 >= 1
 -17 X50 - X130 + X125 >= -16
 -X51 >= -1
 X51 >= 0
 17 X51 + X129 - X125 >= 1
 -17 X51 - X129 + X125 >= -16
 -X52 >= -1
 X52 >= 0
 17 X52 + X128 - X125 >= 1
 -17 X52 - X128 + X125 >= -16
 -X53 >= -1
 X53 >= 0
 17 X53 + X127 - X125 >= 1
 -17 X53 - X127 + X125 >= -16
 -X54 >= -1
 X54 >= 0
 17 X54 + X126 - X125 >= 1
 -17 X54 - X126 + X125 >= -16
 -X55 >= -1
 X55 >= 0
 17 X55 + X135 - X124 >= 1
 -17 X55 - X135 + X124 >= -16
 -X56 >= -1
 X56 >= 0
 17 X56 + X134 - X124 >= 1
 -17 X56 - X134 + X124 >= -16
 -X57 >= -1
 X57 >= 0
 17 X57 + X133 - X124 >= 1
 -17 X57 - X133 + X124 >= -16
 -X58 >= -1
 X58 >= 0
 17 X58 + X132 - X124 >= 1
 -17 X58 - X132 + X124 >= -16
 -X59 >= -1
 X59 >= 0
 17 X59 + X131 - X124 >= 1
 -17 X59 - X131 + X124 >= -16
 -X60 >= -1
 X60 >= 0
 17 X60 + X130 - X124 >= 1
 -17 X60 - X130 + X124 >= -16
 -X61 >= -1
 X61 >= 0
 17 X61 + X129 - X124 >= 1
 -17 X61 - X129 + X124 >= -16
 -X62 >= -1
 X62 >= 0
 17 X62 + X128 - X124 >= 1
 -17 X62 - X128 + X124 >= -16
 -X63 >= -1
 X63 >= 0
 17 X63 + X127 - X124 >= 1
 -17 X63 - X127 + X124 >= -16
 -X64 >= -1
 X64 >= 0
 17 X64 + X126 - X124 >= 1
 -17 X64 - X126 + X124 >= -16
 -X65 >= -1
 X65 >= 0
 17 X65 + X125 - X124 >= 1
 -17 X65 - X125 + X124 >= -16
 -X66 >= -1
 X66 >= 0
 17 X66 + X135 - X123 >= 1
 -17 X66 - X135 + X123 >= -16
 -X67 >= -1
 X67 >= 0
 17 X67 + X134 - X123 >= 1
 -17 X67 - X134 + X123 >= -16
 -X68 >= -1
 X68 >= 0
 17 X68 + X133 - X123 >= 1
 -17 X68 - X133 + X123 >= -16
 -X69 >= -1
 X69 >= 0
 17 X69 + X132 - X123 >= 1
 -17 X69 - X132 + X123 >= -16
 -X70 >= -1
 X70 >= 0
 17 X70 + X131 - X123 >= 1
 -17 X70 - X131 + X123 >= -16
 -X71 >= -1
 X71 >= 0
 17 X71 + X130 - X123 >= 1
 -17 X71 - X130 + X123 >= -16
 -X72 >= -1
 X72 >= 0
 17 X72 + X129 - X123 >= 1
 -17 X72 - X129 + X123 >= -16
 -X73 >= -1
 X73 >= 0
 17 X73 + X128 - X123 >= 1
 -17 X73 - X128 + X123 >= -16
 -X74 >= -1
 X74 >= 0
 17 X74 + X127 - X123 >= 1
 -17 X74 - X127 + X123 >= -16
 -X75 >= -1
 X75 >= 0
 17 X75 + X126 - X123 >= 1
 -17 X75 - X126 + X123 >= -16
 -X76 >= -1
 X76 >= 0
 17 X76 + X125 - X123 >= 1
 -17 X76 - X125 + X123 >= -16
 -X77 >= -1
 X77 >= 0
 17 X77 + X124 - X123 >= 1
 -17 X77 - X124 + X123 >= -16
 -X78 >= -1
 X78 >= 0
 17 X78 + X135 - X122 >= 1
 -17 X78 - X135 + X122 >= -16
 -X79 >= -1
 X79 >= 0
 17 X79 + X134 - X122 >= 1
 -17 X79 - X134 + X122 >= -16
 -X80 >= -1
 X80 >= 0
 17 X80 + X133 - X122 >= 1
 -17 X80 - X133 + X122 >= -16
 -X81 >= -1
 X81 >= 0
 17 X81 + X132 - X122 >= 1
 -17 X81 - X132 + X122 >= -16
 -X82 >= -1
 X82 >= 0
 17 X82 + X131 - X122 >= 1
 -17 X82 - X131 + X122 >= -16
 -X83 >= -1
 X83 >= 0
 17 X83 + X130 - X122 >= 1
 -17 X83 - X130 + X122 >= -16
 -X84 >= -1
 X84 >= 0
 17 X84 + X129 - X122 >= 1
 -17 X84 - X129 + X122 >= -16
 -X85 >= -1
 X85 >= 0
 17 X85 + X128 - X122 >= 1
 -17 X85 - X128 + X122 >= -16
 -X86 >= -1
 X86 >= 0
 17 X86 + X127 - X122 >= 1
 -17 X86 - X127 + X122 >= -16
 -X87 >= -1
 X87 >= 0
 17 X87 + X126 - X122 >= 1
 -17 X87 - X126 + X122 >= -16
 -X88 >= -1
 X88 >= 0
 17 X88 + X125 - X122 >= 1
 -17 X88 - X125 + X122 >= -16
 -X89 >= -1
 X89 >= 0
 17 X89 + X124 - X122 >= 1
 -17 X89 - X124 + X122 >= -16
 -X90 >= -1
 X90 >= 0
 17 X90 + X123 - X122 >= 1
 -17 X90 - X123 + X122 >= -16
 -X91 >= -1
 X91 >= 0
 17 X91 + X135 - X121 >= 1
 -17 X91 - X135 + X121 >= -16
 -X92 >= -1
 X92 >= 0
 17 X92 + X134 - X121 >= 1
 -17 X92 - X134 + X121 >= -16
 -X93 >= -1
 X93 >= 0
 17 X93 + X133 - X121 >= 1
 -17 X93 - X133 + X121 >= -16
 -X94 >= -1
 X94 >= 0
 17 X94 + X132 - X121 >= 1
 -17 X94 - X132 + X121 >= -16
 -X95 >= -1
 X95 >= 0
 17 X95 + X131 - X121 >= 1
 -17 X95 - X131 + X121 >= -16
 -X96 >= -1
 X96 >= 0
 17 X96 + X130 - X121 >= 1
 -17 X96 - X130 + X121 >= -16
 -X97 >= -1
 X97 >= 0
 17 X97 + X129 - X121 >= 1
 -17 X97 - X129 + X121 >= -16
 -X98 >= -1
 X98 >= 0
 17 X98 + X128 - X121 >= 1
 -17 X98 - X128 + X121 >= -16
 -X99 >= -1
 X99 >= 0
 17 X99 + X127 - X121 >= 1
 -17 X99 - X127 + X121 >= -16
 -X100 >= -1
 X100 >= 0
 17 X100 + X126 - X121 >= 1
 -17 X100 - X126 + X121 >= -16
 -X101 >= -1
 X101 >= 0
 17 X101 + X125 - X121 >= 1
 -17 X101 - X125 + X121 >= -16
 -X102 >= -1
 X102 >= 0
 17 X102 + X124 - X121 >= 1
 -17 X102 - X124 + X121 >= -16
 -X103 >= -1
 X103 >= 0
 17 X103 + X123 - X121 >= 1
 -17 X103 - X123 + X121 >= -16
 -X104 >= -1
 X104 >= 0
 17 X104 + X122 - X121 >= 1
 -17 X104 - X122 + X121 >= -16
 -X105 >= -1
 X105 >= 0
 17 X105 + X135 - X120 >= 1
 -17 X105 - X135 + X120 >= -16
 -X106 >= -1
 X106 >= 0
 17 X106 + X134 - X120 >= 1
 -17 X106 - X134 + X120 >= -16
 -X107 >= -1
 X107 >= 0
 17 X107 + X133 - X120 >= 1
 -17 X107 - X133 + X120 >= -16
 -X108 >= -1
 X108 >= 0
 17 X108 + X132 - X120 >= 1
 -17 X108 - X132 + X120 >= -16
 -X109 >= -1
 X109 >= 0
 17 X109 + X131 - X120 >= 1
 -17 X109 - X131 + X120 >= -16
 -X110 >= -1
 X110 >= 0
 17 X110 + X130 - X120 >= 1
 -17 X110 - X130 + X120 >= -16
 -X111 >= -1
 X111 >= 0
 17 X111 + X129 - X120 >= 1
 -17 X111 - X129 + X120 >= -16
 -X112 >= -1
 X112 >= 0
 17 X112 + X128 - X120 >= 1
 -17 X112 - X128 + X120 >= -16
 -X113 >= -1
 X113 >= 0
 17 X113 + X127 - X120 >= 1
 -17 X113 - X127 + X120 >= -16
 -X114 >= -1
 X114 >= 0
 17 X114 + X126 - X120 >= 1
 -17 X114 - X126 + X120 >= -16
 -X115 >= -1
 X115 >= 0
 17 X115 + X125 - X120 >= 1
 -17 X115 - X125 + X120 >= -16
 -X116 >= -1
 X116 >= 0
 17 X116 + X124 - X120 >= 1
 -17 X116 - X124 + X120 >= -16
 -X117 >= -1
 X117 >= 0
 17 X117 + X123 - X120 >= 1
 -17 X117 - X123 + X120 >= -16
 -X118 >= -1
 X118 >= 0
 17 X118 + X122 - X120 >= 1
 -17 X118 - X122 + X120 >= -16
 -X119 >= -1
 X119 >= 0
 17 X119 + X121 - X120 >= 1
 -17 X119 - X121 + X120 >= -16
 -X120 >= -16
 X120 >= 1
 -X120 - X121 - X122 - X123 = -34
 -X120 - X124 - X128 - X132 = -34
 -X120 - X125 - X130 - X135 = -34
 -X121 >= -16
 X121 >= 1
 -X121 - X125 - X129 - X133 = -34
 -X122 >= -16
 X122 >= 1
 -X122 - X126 - X130 - X134 = -34
 -X123 >= -16
 X123 >= 1
 -X123 - X127 - X131 - X135 = -34
 -X123 - X126 - X129 - X132 = -34
 -X124 >= -16
 X124 >= 1
 -X124 - X125 - X126 - X127 = -34
 -X125 >= -16
 X125 >= 1
 -X126 >= -16
 X126 >= 1
 -X127 >= -16
 X127 >= 1
 -X128 >= -16
 X128 >= 1
 -X128 - X129 - X130 - X131 = -34
 -X129 >= -16
 X129 >= 1
 -X130 >= -16
 X130 >= 1
 -X131 >= -16
 X131 >= 1
 -X132 >= -16
 X132 >= 1
 -X132 - X133 - X134 - X135 = -34
 -X133 >= -16
 X133 >= 1
 -X134 >= -16
 X134 >= 1
 -X135 >= -16
 X135 >= 1
Bounds
 0 <= X_1 <= 0
 0 <= X0 <= 1
 0 <= X1 <= 1
 0 <= X2 <= 1
 0 <= X3 <= 1
 0 <= X4 <= 1
 0 <= X5 <= 1
 0 <= X6 <= 1
 0 <= X7 <= 1
 0 <= X8 <= 1
 0 <= X9 <= 1
 0 <= X10 <= 1
 0 <= X11 <= 1
 0 <= X12 <= 1
 0 <= X13 <= 1
 0 <= X14 <= 1
 0 <= X15 <= 1
 0 <= X16 <= 1
 0 <= X17 <= 1
 0 <= X18 <= 1
 0 <= X19 <= 1
 0 <= X20 <= 1
 0 <= X21 <= 1
 0 <= X22 <= 1
 0 <= X23 <= 1
 0 <= X24 <= 1
 0 <= X25 <= 1
 0 <= X26 <= 1
 0 <= X27 <= 1
 0 <= X28 <= 1
 0 <= X29 <= 1
 0 <= X30 <= 1
 0 <= X31 <= 1
 0 <= X32 <= 1
 0 <= X33 <= 1
 0 <= X34 <= 1
 0 <= X35 <= 1
 0 <= X36 <= 1
 0 <= X37 <= 1
 0 <= X38 <= 1
 0 <= X39 <= 1
 0 <= X40 <= 1
 0 <= X41 <= 1
 0 <= X42 <= 1
 0 <= X43 <= 1
 0 <= X44 <= 1
 0 <= X45 <= 1
 0 <= X46 <= 1
 0 <= X47 <= 1
 0 <= X48 <= 1
 0 <= X49 <= 1
 0 <= X50 <= 1
 0 <= X51 <= 1
 0 <= X52 <= 1
 0 <= X53 <= 1
 0 <= X54 <= 1
 0 <= X55 <= 1
 0 <= X56 <= 1
 0 <= X57 <= 1
 0 <= X58 <= 1
 0 <= X59 <= 1
 0 <= X60 <= 1
 0 <= X61 <= 1
 0 <= X62 <= 1
 0 <= X63 <= 1
 0 <= X64 <= 1
 0 <= X65 <= 1
 0 <= X66 <= 1
 0 <= X67 <= 1
 0 <= X68 <= 1
 0 <= X69 <= 1
 0 <= X70 <= 1
 0 <= X71 <= 1
 0 <= X72 <= 1
 0 <= X73 <= 1
 0 <= X74 <= 1
 0 <= X75 <= 1
 0 <= X76 <= 1
 0 <= X77 <= 1
 0 <= X78 <= 1
 0 <= X79 <= 1
 0 <= X80 <= 1
 0 <= X81 <= 1
 0 <= X82 <= 1
 0 <= X83 <= 1
 0 <= X84 <= 1
 0 <= X85 <= 1
 0 <= X86 <= 1
 0 <= X87 <= 1
 0 <= X88 <= 1
 0 <= X89 <= 1
 0 <= X90 <= 1
 0 <= X91 <= 1
 0 <= X92 <= 1
 0 <= X93 <= 1
 0 <= X94 <= 1
 0 <= X95 <= 1
 0 <= X96 <= 1
 0 <= X97 <= 1
 0 <= X98 <= 1
 0 <= X99 <= 1
 0 <= X100 <= 1
 0 <= X101 <= 1
 0 <= X102 <= 1
 0 <= X103 <= 1
 0 <= X104 <= 1
 0 <= X105 <= 1
 0 <= X106 <= 1
 0 <= X107 <= 1
 0 <= X108 <= 1
 0 <= X109 <= 1
 0 <= X110 <= 1
 0 <= X111 <= 1
 0 <= X112 <= 1
 0 <= X113 <= 1
 0 <= X114 <= 1
 0 <= X115 <= 1
 0 <= X116 <= 1
 0 <= X117 <= 1
 0 <= X118 <= 1
 0 <= X119 <= 1
 1 <= X120 <= 16
 1 <= X121 <= 16
 1 <= X122 <= 16
 1 <= X123 <= 16
 1 <= X124 <= 16
 1 <= X125 <= 16
 1 <= X126 <= 16
 1 <= X127 <= 16
 1 <= X128 <= 16
 1 <= X129 <= 16
 1 <= X130 <= 16
 1 <= X131 <= 16
 1 <= X132 <= 16
 1 <= X133 <= 16
 1 <= X134 <= 16
 1 <= X135 <= 16
Integers
 X_1
 X0
 X1
 X2
 X3
 X4
 X5
 X6
 X7
 X8
 X9
 X10
 X11
 X12
 X13
 X14
 X15
 X16
 X17
 X18
 X19
 X20
 X21
 X22
 X23
 X24
 X25
 X26
 X27
 X28
 X29
 X30
 X31
 X32
 X33
 X34
 X35
 X36
 X37
 X38
 X39
 X40
 X41
 X42
 X43
 X44
 X45
 X46
 X47
 X48
 X49
 X50
 X51
 X52
 X53
 X54
 X55
 X56
 X57
 X58
 X59
 X60
 X61
 X62
 X63
 X64
 X65
 X66
 X67
 X68
 X69
 X70
 X71
 X72
 X73
 X74
 X75
 X76
 X77
 X78
 X79
 X80
 X81
 X82
 X83
 X84
 X85
 X86
 X87
 X88
 X89
 X90
 X91
 X92
 X93
 X94
 X95
 X96
 X97
 X98
 X99
 X100
 X101
 X102
 X103
 X104
 X105
 X106
 X107
 X108
 X109
 X110
 X111
 X112
 X113
 X114
 X115
 X116
 X117
 X118
 X119
 X120
 X121
 X122
 X123
 X124
 X125
 X126
 X127
 X128
 X129
 X130
 X131
 X132
 X133
 X134
 X135
End
